1 -1 2 0
1 1 3 0
1 4 -5 0
1 2 -6 0
1 -2 1 0
1 2 -7 0
1 -5 2 0
1 -5 8 0
1 -5 -9 0
1 -10 11 0
1 -10 -12 0
1 -3 11 0
1 -9 5 0
1 13 -14 0
1 15 16 0
1 -15 -17 0
1 18 19 0
1 -18 -8 0
1 -20 -9 0
1 -21 22 0
1 17 13 0
1 -23 -21 0
1 -22 24 0
1 -25 -17 0
1 -25 26 0
1 -27 -28 0
1 29 -11 0
1 29 -30 0
1 31 32 0
1 -12 33 0
1 34 11 0
1 11 -3 0
1 35 -19 0
1 -35 11 0
1 -36 37 0
1 36 -38 0
1 -36 -39 0
1 -40 -41 0
1 -8 -3 0
1 -42 20 0
1 42 -43 0
1 -42 10 0
1 42 -2 0
1 42 18 0
1 44 -19 0
1 19 45 0
1 -43 19 0
1 -45 46 0
1 -47 -48 0
1 48 -11 0
1 48 -49 0
1 -48 -50 0
1 -51 43 0
1 -51 -6 0
1 -52 -16 0
1 -52 49 0
1 -26 -52 0
1 -6 52 0
1 53 -54 0
1 55 23 0
1 56 57 0
1 -58 -6 0
1 59 55 0
1 16 15 0
1 -16 60 0
1 16 61 0
1 57 -55 0
1 62 63 0
1 -62 -52 0
1 62 -54 0
1 64 65 0
1 -64 -61 0
1 -66 -58 0
1 -67 68 0
1 -69 -70 0
1 71 -72 0
1 71 70 0
1 73 -74 0
1 -73 -75 0
1 -73 76 0
1 68 -71 0
1 32 -77 0
1 -32 -78 0
1 -76 -79 0
1 -74 -79 0
1 74 80 0
1 81 41 0
1 -81 32 0
1 -70 76 0
1 -70 -32 0
1 82 -33 0
1 -82 -71 0
1 82 -69 0
1 -41 29 0
1 39 -79 0
1 -39 44 0
1 -39 -40 0
1 -38 81 0
1 83 84 0
1 -80 -85 0
1 -86 74 0
1 -50 87 0
1 -37 88 0
1 37 -50 0
1 -49 -89 0
1 -49 47 0
1 -84 -83 0
1 -84 -26 0
1 90 50 0
1 90 91 0
1 92 -93 0
1 94 84 0
1 -95 96 0
1 95 -84 0
1 46 89 0
1 46 47 0
1 46 92 0
1 -46 -97 0
1 -91 98 0
1 99 -100 0
1 101 -100 0
1 101 97 0
1 89 -101 0
1 -63 62 0
1 -54 -102 0
1 54 -103 0
1 -104 -105 0
1 -104 106 0
1 107 108 0
1 107 109 0
1 -107 -54 0
1 -105 -110 0
1 110 111 0
1 -112 16 0
1 -112 -113 0
1 -112 114 0
1 -112 106 0
1 115 -107 0
1 -108 116 0
1 -117 -108 0
1 118 119 0
1 120 119 0
1 114 121 0
1 65 116 0
1 122 -123 0
1 124 -120 0
1 60 -124 0
1 -60 -117 0
1 -116 -62 0
1 116 -124 0
1 -116 -125 0
1 126 -123 0
1 127 -128 0
1 -127 129 0
1 -130 -123 0
1 -131 -132 0
1 123 -129 0
1 -133 82 0
1 -133 -87 0
1 -134 -135 0
1 -134 -136 0
1 -134 137 0
1 138 -46 0
1 -138 95 0
1 138 139 0
1 -138 -96 0
1 -96 79 0
1 -96 138 0
1 96 -83 0
1 140 -99 0
1 -140 136 0
1 136 -94 0
1 -136 -141 0
1 -142 143 0
1 -142 72 0
1 -142 136 0
1 -142 96 0
1 -143 98 0
1 -103 98 0
1 -144 145 0
1 -146 147 0
1 -148 149 0
1 -148 -150 0
1 148 -151 0
1 -152 -136 0
1 -153 -143 0
1 -153 -154 0
1 -147 -149 0
1 147 -155 0
1 -113 -112 0
1 -113 152 0
1 151 152 0
1 -156 146 0
1 -157 145 0
1 -157 151 0
1 -145 -149 0
1 145 -146 0
1 -158 -65 0
1 -158 109 0
1 -158 -159 0
1 -109 156 0
1 -160 -161 0
1 -162 -159 0
1 162 163 0
1 -164 119 0
1 164 -162 0
1 161 -165 0
1 166 -167 0
1 -159 -166 0
1 121 -119 0
1 -119 -118 0
1 119 -163 0
1 -119 -168 0
1 -125 164 0
1 -169 -170 0
1 -169 125 0
1 -171 168 0
1 172 -113 0
1 -154 172 0
1 -154 173 0
1 154 174 0
1 -154 -151 0
1 155 -175 0
1 155 173 0
1 -155 -176 0
1 -155 -153 0
1 174 -154 0
1 -149 -148 0
1 -149 177 0
1 178 152 0
1 178 -135 0
1 178 -179 0
1 180 -176 0
1 -179 155 0
1 -179 167 0
1 176 -177 0
1 -176 -139 0
1 -177 -175 0
1 -177 155 0
1 -167 159 0
1 181 -182 0
1 181 -183 0
1 -150 -148 0
1 184 180 0
1 185 -181 0
1 185 186 0
